
******************************************************************************
This program contains Ipopt, a library for large-scale nonlinear optimization.
 Ipopt is released as open source code under the Eclipse Public License (EPL).
         For more information visit http://projects.coin-or.org/Ipopt

This version of Ipopt was compiled from source code available at
    https://github.com/IDAES/Ipopt as part of the Institute for the Design of
    Advanced Energy Systems Process Systems Engineering Framework (IDAES PSE
    Framework) Copyright (c) 2018-2019. See https://github.com/IDAES/idaes-pse.

This version of Ipopt was compiled using HSL, a collection of Fortran codes
    for large-scale scientific computation.  All technical papers, sales and
    publicity material resulting from use of the HSL codes within IPOPT must
    contain the following acknowledgement:
        HSL, a collection of Fortran codes for large-scale scientific
        computation. See http://www.hsl.rl.ac.uk.
******************************************************************************

This is Ipopt version 3.13.2, running with linear solver ma27.

Number of nonzeros in equality constraint Jacobian...:     1020
Number of nonzeros in inequality constraint Jacobian.:        0
Number of nonzeros in Lagrangian Hessian.............:     1161

Total number of variables............................:      405
                     variables with only lower bounds:      108
                variables with lower and upper bounds:      243
                     variables with only upper bounds:        0
Total number of equality constraints.................:      402
Total number of inequality constraints...............:        0
        inequality constraints with only lower bounds:        0
   inequality constraints with lower and upper bounds:        0
        inequality constraints with only upper bounds:        0

iter    objective    inf_pr   inf_du lg(mu)  ||d||  lg(rg) alpha_du alpha_pr  ls
   0  0.0000000e+00 1.44e+00 1.33e-15  -1.0 0.00e+00    -  0.00e+00 0.00e+00   0
   1  5.1948368e+00 1.37e+00 3.61e+05  -1.0 4.42e+06    -  5.14e-02 4.76e-02h  3
   2  1.0602390e+01 1.34e+00 3.57e+05  -1.0 4.64e+06    -  4.34e-02 1.84e-02h  4
   3  3.0447485e+01 1.25e+00 4.90e+05  -1.0 6.14e+06    -  4.15e-02 3.52e-02h  3
   4  9.8144118e+01 1.14e+00 8.32e+07  -1.0 1.04e+07  -4.0 4.37e-02 4.54e-02h  2
   5  1.0115846e+02 1.14e+00 5.90e+07  -1.0 2.18e+07  -3.6 2.86e-03 2.86e-03s 17
   6r 1.0115846e+02 1.14e+00 9.99e+02   0.1 0.00e+00  -4.1 0.00e+00 0.00e+00R  1
   7r 1.0115850e+02 1.07e+00 9.96e+02   0.1 2.80e+03    -  6.70e-03 2.66e-03f  1
   8r 1.0115885e+02 1.02e+00 9.90e+02   0.1 1.54e+03    -  1.99e-02 6.17e-03f  1
   9  4.1540827e+02 8.54e-01 3.63e+04  -1.0 2.56e+07    -  3.65e-02 5.56e-02h  2
iter    objective    inf_pr   inf_du lg(mu)  ||d||  lg(rg) alpha_du alpha_pr  ls
  10  4.5594502e+02 8.49e-01 3.62e+04  -1.0 4.23e+07    -  6.97e-02 3.60e-03h  7
  11  2.4082628e+03 6.50e-01 7.74e+04  -1.0 5.20e+07    -  6.90e-02 7.69e-02h  1
  12  2.4867104e+03 6.49e-01 7.73e+04  -1.0 1.09e+08    -  7.88e-02 1.11e-03h  1
  13  2.4927139e+03 6.49e-01 7.73e+04  -1.0 1.12e+08    -  8.92e-02 8.41e-05h  1
  14  1.6341086e+04 1.32e+00 5.76e+05  -1.0 1.14e+08    -  1.23e-01 1.05e-01h  2
  15  3.0739579e+04 1.36e+00 1.03e+06  -1.0 8.30e+08    -  2.63e-02 9.91e-03h  2
  16  2.8139392e+04 1.35e+00 1.72e+05  -1.0 3.18e+08    -  3.23e-01 4.00e-03f  2
  17  2.5571713e+04 1.35e+00 1.29e+06  -1.0 8.23e+08    -  3.57e-01 1.50e-03f  5
  18  3.5913850e+04 1.36e+00 8.22e+06  -1.0 1.10e+09    -  2.19e-02 4.90e-03h  3
  19  2.1202878e+04 1.37e+00 7.34e+07  -1.0 1.58e+09    -  4.49e-01 4.74e-03f  3
iter    objective    inf_pr   inf_du lg(mu)  ||d||  lg(rg) alpha_du alpha_pr  ls
  20  2.2090883e+04 1.37e+00 4.84e+08  -1.0 1.84e+08    -  1.19e-01 4.03e-03h  4
  21  1.7213562e+04 1.37e+00 1.38e+09  -1.0 1.06e+09    -  6.33e-01 2.73e-03f  4
  22  2.3076102e+04 1.38e+00 1.56e+09  -1.0 1.13e+09    -  1.80e-02 3.20e-03h  4
  23  1.3569835e+04 1.39e+00 1.24e+10  -1.0 1.03e+09    -  2.16e-01 5.83e-03f  3
  24  1.4801569e+04 3.89e+00 1.55e+11  -1.0 7.76e+07    -  3.16e-01 2.24e-02w  1
  25  1.0136694e+04 3.75e+00 1.31e+11  -1.0 1.66e+08    -  8.35e-02 2.04e-02w  1
  26  9.8885122e+03 4.06e+00 1.31e+11  -1.0 3.39e+08    -  1.91e-03 2.04e-03w  1
  27  1.3700274e+04 1.39e+00 1.45e+10  -1.0 9.24e+07    -  3.16e-01 2.80e-03h  3
  28  1.3305112e+04 1.38e+00 2.68e+10  -1.0 8.05e+07    -  2.87e-01 6.50e-03f  3
  29  1.2572639e+04 1.37e+00 3.30e+10  -1.0 9.42e+07    -  7.38e-01 4.79e-03f  4
iter    objective    inf_pr   inf_du lg(mu)  ||d||  lg(rg) alpha_du alpha_pr  ls
  30  1.1832091e+04 1.37e+00 3.72e+10  -1.0 1.03e+08    -  1.22e-01 4.76e-03f  4
  31  1.1133366e+04 1.36e+00 3.98e+10  -1.0 1.01e+08    -  9.80e-01 4.83e-03f  4
  32  1.0488725e+04 1.35e+00 4.14e+10  -1.0 9.57e+07    -  5.28e-02 4.91e-03f  4
  33  6.3360525e+03 3.75e+00 6.27e+10  -1.0 8.97e+07    -  9.81e-01 3.99e-02f  1
  34  4.0063131e+03 4.24e+00 1.37e+11  -1.0 4.65e+07    -  4.87e-02 5.76e-02f  1
  35  2.5798219e+03 4.07e+00 2.21e+11  -1.0 5.01e+07    -  2.78e-02 4.35e-02f  1
  36  2.5753960e+03 5.85e+00 2.21e+11  -1.0 8.57e+06  -2.7 9.79e-03 9.90e-04f  1
  37  2.5803110e+03 5.70e+00 2.21e+11  -1.0 5.69e+08  -3.2 4.73e-03 1.50e-05h  1
  38  2.5546984e+03 9.43e+00 5.87e+25  -1.0 2.82e+11  -2.8 8.55e-06 1.58e-07f  1
Scaling factors are invalid - setting them all to 1.
Scaling factors are invalid - setting them all to 1.
Scaling factors are invalid - setting them all to 1.
Scaling factors are invalid - setting them all to 1.
Scaling factors are invalid - setting them all to 1.
Scaling factors are invalid - setting them all to 1.
Scaling factors are invalid - setting them all to 1.
Scaling factors are invalid - setting them all to 1.
Scaling factors are invalid - setting them all to 1.
Scaling factors are invalid - setting them all to 1.
Scaling factors are invalid - setting them all to 1.
WARNING: Problem in step computation; switching to emergency mode.
  39r 2.5546984e+03 9.43e+00 1.00e+03   1.0 0.00e+00  18.9 0.00e+00 0.00e+00R  1
iter    objective    inf_pr   inf_du lg(mu)  ||d||  lg(rg) alpha_du alpha_pr  ls
  40r 2.5546979e+03 1.31e+01 1.62e+03   1.0 9.43e+03    -  4.37e-02 9.90e-04f  1
  41r 2.5546952e+03 5.94e+00 4.07e+10   1.0 1.05e+03    -  2.54e-03 1.62e-02f  1
  42r 2.5546952e+03 5.94e+00 9.99e+02   0.8 0.00e+00    -  0.00e+00 3.84e-11R  2
  43r 2.5546951e+03 6.02e+00 1.53e+04   0.8 5.94e+03    -  4.61e-02 9.90e-04f  1
  44r 2.5546942e+03 1.28e+01 2.73e+11   0.8 2.53e+02    -  9.33e-02 2.91e-02f  1
  45r 2.5546942e+03 5.77e+00 2.43e+16   0.8 5.78e-01   9.5 2.13e-02 7.72e-03h  1
  46r 2.5546942e+03 1.29e+01 5.44e+11   0.8 2.93e-01  13.6 8.28e-06 4.18e-03F  1
  47r 2.5546942e+03 9.07e+00 6.64e+21   0.8 1.23e-01  13.1 2.99e-03 3.09e-05H  1
  48r 2.5546942e+03 9.07e+00 6.64e+21   0.8 1.83e-05  16.6 0.00e+00 4.68e-07R 19
  49r 2.5546942e+03 9.07e+00 9.75e+15   0.8 2.29e-10  16.2 9.90e-01 1.00e+00f  1
iter    objective    inf_pr   inf_du lg(mu)  ||d||  lg(rg) alpha_du alpha_pr  ls
  50r 2.5546942e+03 9.07e+00 1.45e+13   0.8 1.22e-07  15.7 9.90e-01 1.00e+00f  1
  51r 2.5546942e+03 9.07e+00 5.42e+11   0.8 1.67e-05  15.2 9.90e-01 1.00e+00h  1
  52r 2.5546942e+03 9.07e+00 1.23e+10   0.8 2.25e-05  14.7 9.97e-01 1.00e+00f  1
  53r 2.5546942e+03 9.07e+00 1.97e+09   0.8 1.08e-05  14.3 1.00e+00 1.00e+00f  1
  54r 2.5546942e+03 9.07e+00 7.35e+08   0.8 1.21e-05  13.8 1.00e+00 1.00e+00f  1
  55r 2.5546942e+03 9.07e+00 3.67e+08   0.8 1.82e-05  13.3 1.00e+00 1.00e+00f  1
  56r 2.5546942e+03 9.07e+00 5.12e+07   0.8 7.61e-06  12.8 1.00e+00 1.00e+00f  1
  57r 2.5546942e+03 9.07e+00 5.39e+07   0.8 7.17e-06  12.4 1.00e+00 1.00e+00f  1
  58r 2.5546942e+03 9.07e+00 2.40e+08   0.8 2.95e-05  11.9 1.00e+00 1.00e+00f  1
  59r 2.5546942e+03 9.07e+00 1.93e+09   0.8 1.34e-05  11.4 1.00e+00 1.00e+00f  1
iter    objective    inf_pr   inf_du lg(mu)  ||d||  lg(rg) alpha_du alpha_pr  ls
  60r 2.5546942e+03 9.07e+00 3.01e+10   0.8 1.78e-05  10.9 1.00e+00 1.00e+00f  1
  61r 2.5546942e+03 9.07e+00 7.62e+11   0.8 1.20e-05  10.4 1.00e+00 1.00e+00f  1
  62r 2.5546942e+03 9.07e+00 5.23e+12   0.8 1.50e-05  10.0 1.00e+00 1.25e-01f  4
  63r 2.5546942e+03 9.07e+00 7.26e+13   0.8 7.69e-06  10.4 1.00e+00 2.50e-01f  3
  64r 2.5546942e+03 1.29e+01 3.48e+07   0.8 1.47e-05  11.7 1.00e+00 1.00e+00f  1
  65r 2.5546942e+03 9.07e+00 5.01e+15   0.8 2.63e-02  11.2 1.00e+00 2.19e-04h  2
  66r 2.5546942e+03 9.07e+00 7.59e+17   0.8 5.59e-06  13.5 9.91e-01 1.00e+00f  1
  67r 2.5546942e+03 9.07e+00 2.56e+21   0.8 1.70e-05  15.7 1.00e+00 1.00e+00f  1
Scaling factors are invalid - setting them all to 1.
Scaling factors are invalid - setting them all to 1.
Scaling factors are invalid - setting them all to 1.
Scaling factors are invalid - setting them all to 1.
Scaling factors are invalid - setting them all to 1.
Scaling factors are invalid - setting them all to 1.
Scaling factors are invalid - setting them all to 1.
Scaling factors are invalid - setting them all to 1.
Scaling factors are invalid - setting them all to 1.
WARNING: Problem in step computation; switching to emergency mode.
  68r 2.5546942e+03 9.07e+00 2.56e+21   0.8 1.70e-05  19.3 0.00e+00 0.00e+00R  1
Scaling factors are invalid - setting them all to 1.
Scaling factors are invalid - setting them all to 1.
  69r 2.5546942e+03 9.07e+00 1.18e+15   0.8 3.77e-15  19.7 1.00e+00 1.00e+00   0
iter    objective    inf_pr   inf_du lg(mu)  ||d||  lg(rg) alpha_du alpha_pr  ls
  70r 2.5546942e+03 9.07e+00 2.08e+09   0.8 1.13e-14  19.2 1.00e+00 1.00e+00h  1
  71r 2.5546942e+03 9.07e+00 1.86e+05   0.8 3.37e-14  18.7 1.00e+00 1.00e+00h  1
  72r 2.5546942e+03 9.07e+00 1.86e+05   0.8 1.01e-13  18.3 1.00e+00 1.00e+00h  1
  73r 2.5546942e+03 9.07e+00 1.86e+05   0.8 3.04e-13  17.8 1.00e+00 1.00e+00h  1
  74r 2.5546942e+03 9.07e+00 7.41e+06   0.8 3.63e-11  17.3 1.00e+00 1.00e+00h  1
  75r 2.5546942e+03 9.07e+00 1.61e+06   0.8 2.38e-11  16.8 1.00e+00 1.00e+00h  1
  76r 2.5546942e+03 9.07e+00 2.68e+07   0.8 1.18e-09  16.4 1.00e+00 1.00e+00h  1
  77r 2.5546942e+03 9.07e+00 3.50e+08   0.8 4.64e-08  15.9 1.00e+00 1.00e+00h  1
  78r 2.5546942e+03 9.07e+00 2.11e+10   0.8 1.67e-05  15.4 1.00e+00 5.00e-01h  2
  79r 2.5546942e+03 9.07e+00 1.29e+10   0.8 5.56e-06  14.9 1.00e+00 5.00e-01h  2
iter    objective    inf_pr   inf_du lg(mu)  ||d||  lg(rg) alpha_du alpha_pr  ls
  80r 2.5546942e+03 9.07e+00 2.45e+09   0.8 8.75e-06  14.4 1.00e+00 1.00e+00h  1
  81r 2.5546942e+03 9.07e+00 1.36e+09   0.8 1.47e-05  14.0 1.00e+00 1.00e+00H  1
  82r 2.5546942e+03 9.07e+00 5.65e+08   0.8 1.82e-05  13.5 1.00e+00 1.00e+00h  1
  83r 2.5546942e+03 9.07e+00 1.86e+08   0.8 1.79e-05  13.0 1.00e+00 1.00e+00f  1
  84r 2.5546942e+03 9.07e+00 3.53e+07   0.8 1.02e-05  12.5 1.00e+00 1.00e+00f  1
  85r 2.5546942e+03 9.07e+00 1.34e+07   0.8 9.35e-06  12.1 1.00e+00 1.00e+00f  1
  86r 2.5546942e+03 9.07e+00 3.81e+08   0.8 1.07e-05  11.6 1.00e+00 1.00e+00f  1
  87r 2.5546942e+03 9.07e+00 7.59e+09   0.8 1.05e-05  11.1 1.00e+00 2.50e-01f  3
  88r 2.5546942e+03 9.07e+00 7.17e+11   0.8 3.52e-06  10.6 1.00e+00 1.00e+00f  1
  89r 2.5546942e+03 9.07e+00 6.25e+13   0.8 7.66e-06  10.2 1.00e+00 5.00e-01f  2
iter    objective    inf_pr   inf_du lg(mu)  ||d||  lg(rg) alpha_du alpha_pr  ls
  90r 2.5546942e+03 9.07e+00 3.27e+16   0.8 2.14e-05  11.5 1.00e+00 1.00e+00f  1
  91r 2.5546942e+03 9.07e+00 3.96e+18   0.8 3.39e-05  14.6 1.00e+00 1.00e+00f  1
  92r 2.5546942e+03 1.29e+01 6.77e+11   0.8 5.46e-06  15.9 1.00e+00 5.00e-01f  2
  93r 2.5546942e+03 9.07e+00 1.35e+20   0.8 2.63e-02  15.5 1.00e+00 6.91e-06h  6
  94r 2.5546942e+03 9.07e+00 1.15e+20   0.8 2.90e-06  15.0 9.90e-01 1.00e+00H  1
  95r 2.5546942e+03 9.07e+00 1.97e+18   0.8 9.22e-07  18.1 1.00e+00 1.00e+00h  1
  96r 2.5546942e+03 9.07e+00 9.93e+17   0.8 3.67e-06  17.6 1.00e+00 5.00e-01h  2
  97r 2.5546942e+03 9.07e+00 1.59e+17   0.8 1.23e-05  17.2 1.00e+00 1.00e+00H  1
  98r 2.5546942e+03 9.07e+00 1.39e+17   0.8 9.51e-06  16.7 1.00e+00 1.25e-01h  4
  99r 2.5546942e+03 9.07e+00 1.34e+17   0.8 7.82e-06  16.2 1.00e+00 3.12e-02h  6
iter    objective    inf_pr   inf_du lg(mu)  ||d||  lg(rg) alpha_du alpha_pr  ls
 100r 2.5546942e+03 9.07e+00 1.34e+17   0.8 3.86e-06  15.7 1.00e+00 3.81e-06h 19
 101r 2.5546942e+03 9.07e+00 1.77e+15   0.8 3.86e-06  15.3 1.00e+00 1.00e+00s 22
 102r 2.5546942e+03 9.07e+00 1.22e+14   0.8 8.02e-06  14.8 1.00e+00 1.00e+00s 22
 103r 2.5546942e+03 9.07e+00 1.10e+13   0.8 6.43e-06  14.3 1.00e+00 1.00e+00s 22
 104r 2.5546942e+03 9.07e+00 1.97e+12   0.8 5.17e-06  13.8 1.00e+00 1.00e+00s 22
 105r 2.5546942e+03 9.07e+00 2.73e+10   0.8 7.87e-06  13.4 1.00e+00 1.00e+00s 22
 106r 2.5546942e+03 9.07e+00 2.03e+10   0.8 1.43e-05  12.9 1.00e+00 1.00e+00s 22
 107r 2.5546942e+03 9.07e+00 1.60e+10   0.8 1.42e-05  12.4 1.00e+00 0.00e+00S 22
 108r 2.5546942e+03 9.07e+00 1.47e+10   0.8 9.56e-06  11.9 1.00e+00 3.12e-02h  6
 109r 2.5546942e+03 9.07e+00 1.35e+10   0.8 9.37e-06  11.4 1.00e+00 1.56e-02f  7
iter    objective    inf_pr   inf_du lg(mu)  ||d||  lg(rg) alpha_du alpha_pr  ls
 110r 2.5546942e+03 9.07e+00 1.32e+10   0.8 4.02e-06  11.0 1.00e+00 1.95e-03f 10
 111r 2.5546942e+03 9.07e+00 1.32e+10   0.8 8.40e-06  10.5 1.00e+00 1.22e-04f 14
 112r 2.5546942e+03 9.07e+00 7.27e+12   0.8 1.26e-05  10.0 1.00e+00 1.00e+00f  1
WARNING: Problem in step computation; switching to emergency mode.
 113r 2.5546942e+03 9.07e+00 7.27e+12   0.8 1.26e-05  19.2 0.00e+00 0.00e+00R  1
WARNING: Problem in step computation; switching to emergency mode.
Restoration phase is called at point that is almost feasible,
  with constraint violation 0.000000e+00. Abort.
Restoration phase in the restoration phase failed.

Number of Iterations....: 113

                                   (scaled)                 (unscaled)
Objective...............:   2.5546941962595060e+03    2.5546941962595060e+03
Dual infeasibility......:   7.2715516367708691e+12    7.2715516367708691e+12
Constraint violation....:   9.0729753592891438e+00    9.0729753592891438e+00
Complementarity.........:   5.9404374649409668e+00    5.9404374649409668e+00
Overall NLP error.......:   3.9628815422813812e+11    7.2715516367708691e+12


Number of objective function evaluations             = 370
Number of objective gradient evaluations             = 41
Number of equality constraint evaluations            = 371
Number of inequality constraint evaluations          = 0
Number of equality constraint Jacobian evaluations   = 117
Number of inequality constraint Jacobian evaluations = 0
Number of Lagrangian Hessian evaluations             = 114
Total CPU secs in IPOPT (w/o function evaluations)   =      0.586
Total CPU secs in NLP function evaluations           =      4.369

EXIT: Restoration Failed!
